files/upTests/_easy/b2/0001.eprime
language ESSENCE' 1.0

find x_Occurrence: matrix indexed by [int(0..9)] of bool
find aux__5: int(0..9)
such that
    8 < aux__5,
    (sum v__0 : int(0..9) . x_Occurrence[v__0]) <= 2,
    x_Occurrence[aux__5] = true,
    x_Occurrence[2] = true,
    forAll v__0 : int(0..9) . x_Occurrence[v__0] -> v__0 <= aux__5
