files/upTests/_easy/b2/0001.eprime.solution
language ESSENCE' 1.0
$ minion Nodes: 1
$ minion TotalTime: 0.00063
$ Savile Row TotalTime: 0.162
letting aux__5 be 9
letting x_Occurrence be [false, false, true, false, false, false, false, false, false, true;int(0..9)]
